c Reduced graph for p23 generated by Cyril Grelier
p edge 44 204
e 1 2
e 1 3
e 1 5
e 1 7
e 1 9
e 1 10
e 1 12
e 1 14
e 1 15
e 1 16
e 1 18
e 1 27
e 2 4
e 2 5
e 2 6
e 2 8
e 2 11
e 2 13
e 2 14
e 2 15
e 2 16
e 2 19
e 2 27
e 3 4
e 3 7
e 3 9
e 3 10
e 3 12
e 3 18
e 3 22
e 3 23
e 3 24
e 3 36
e 4 6
e 4 8
e 4 11
e 4 13
e 4 19
e 4 22
e 4 23
e 4 24
e 4 36
e 5 14
e 5 15
e 5 16
e 5 17
e 5 20
e 5 21
e 5 25
e 5 26
e 5 27
e 6 8
e 6 11
e 6 13
e 6 17
e 6 19
e 6 28
e 6 29
e 6 30
e 6 31
e 7 8
e 7 9
e 7 10
e 7 12
e 7 18
e 7 20
e 7 32
e 7 33
e 8 11
e 8 13
e 8 19
e 8 20
e 8 32
e 8 33
e 9 10
e 9 12
e 9 18
e 9 21
e 9 34
e 9 35
e 9 43
e 10 11
e 10 12
e 10 18
e 10 25
e 10 37
e 10 38
e 11 13
e 11 19
e 11 25
e 11 37
e 11 38
e 12 13
e 12 18
e 12 26
e 12 39
e 12 40
e 13 19
e 13 26
e 13 39
e 13 40
e 14 15
e 14 16
e 14 23
e 14 27
e 14 29
e 14 34
e 14 39
e 15 16
e 15 24
e 15 27
e 15 30
e 15 33
e 15 42
e 16 27
e 16 31
e 16 35
e 16 38
e 16 40
e 17 20
e 17 21
e 17 25
e 17 26
e 17 28
e 17 29
e 17 30
e 17 31
e 18 19
e 18 41
e 18 42
e 18 44
e 19 41
e 19 42
e 19 44
e 20 21
e 20 25
e 20 26
e 20 32
e 20 33
e 21 25
e 21 26
e 21 34
e 21 35
e 21 43
e 22 23
e 22 24
e 22 28
e 22 32
e 22 36
e 22 37
e 22 41
e 23 24
e 23 29
e 23 34
e 23 36
e 23 39
e 24 30
e 24 33
e 24 36
e 24 42
e 25 26
e 25 37
e 25 38
e 26 39
e 26 40
e 27 36
e 27 43
e 27 44
e 28 29
e 28 30
e 28 31
e 28 32
e 28 37
e 28 41
e 29 30
e 29 31
e 29 34
e 29 39
e 30 31
e 30 33
e 30 42
e 31 35
e 31 38
e 31 40
e 32 33
e 32 37
e 32 41
e 33 42
e 34 35
e 34 39
e 34 43
e 35 38
e 35 40
e 35 43
e 36 43
e 36 44
e 37 38
e 37 41
e 38 40
e 39 40
e 41 42
e 41 44
e 42 44
e 43 44
